15

5
5
1 2 0 1
1.2 2 1 2
1.4 2 2 3
0.8 2 3 4
0.6 2 4 0


6
4
2.4 4 0 1 2 3
1.5 4 2 3 4 5
1.5 2 0 1
0.6 2 4 5


7
5
3 7 0 1 2 3 4 5 6
1 5 0 2 3 4 5
1 2 1 6
0.75 5 0 1 2 4 6
0.25 2 3 5


8
5
4 5 0 2 5 6 7 
6 5 0 3 4 6 7 
2 4 0 1 4 7 
3 4 1 2 6 7 
5 5 0 3 4 6 7 





10
5
10 10 0 1 2 3 4 5 6 7 8 9
1 2 0 1
1 3 2 3 4
2 3 5 6 7
5 2 8 9



11
5
9 8 2 3 4 5 6 7 8 9 
3 11 0 1 2 3 4 5 6 7 8 9 10 
10 6 0 1 2 3 6 8 
7 6 0 2 3 6 8 10 
8 6 0 4 5 7 8 9 


12
6
1 3 0 1 2
2 4 3 4 5 6
3 2 7 8
4 1 9
1 2 10 11
9 8 0 1 2 3 4 5 6 7


13
5
4 8 1 2 3 7 8 9 11 12 
9 9 0 2 3 6 7 8 9 10 11 
10 8 0 2 4 5 7 9 11 12 
3 10 0 1 4 5 6 7 8 10 11 12 
3 8 1 2 4 5 7 8 10 11 


14
5
2 9 0 1 2 4 5 7 9 12 13 
5 8 0 2 3 4 5 6 8 10 
3 6 5 6 7 8 9 12 
5 7 2 3 5 7 8 9 12 
3 11 0 1 3 4 6 7 8 9 10 11 12 


15
5
10 13 0 1 2 3 5 7 8 9 10 11 12 13 14 
7 9 1 2 4 5 6 8 10 11 14 
2 7 0 1 2 3 4 7 9 
7 10 1 2 3 5 7 8 9 10 11 14 
2 5 1 2 3 5 14 


16
5
1 8 0 1 2 5 8 13 14 15 
10 10 0 1 2 3 5 6 9 10 12 15 
1 11 1 2 4 5 6 7 8 9 11 13 15 
8 10 1 2 4 5 7 8 9 12 14 15 
10 10 0 1 2 3 4 6 8 9 13 14 


17
5
5 12 0 3 4 5 6 7 8 9 11 12 14 16 
10 11 1 3 6 7 8 9 10 12 13 15 16 
6 8 0 4 6 7 10 13 14 15 
2 10 1 2 3 4 5 6 8 10 13 16 
10 14 0 1 2 4 5 7 8 9 10 11 12 14 15 16 


18
5
5 9 1 4 6 7 8 10 11 14 16 
9 10 1 2 3 8 9 10 12 13 14 17 
1 12 1 2 6 7 8 9 11 12 13 15 16 17 
4 13 0 1 2 4 5 6 7 8 11 13 14 15 16 
10 11 0 2 3 5 6 7 8 10 12 13 17 


19
5
3 9 1 4 6 8 10 11 13 16 18 
10 11 0 2 3 7 8 9 10 11 12 14 18 
3 13 0 3 4 6 7 9 10 11 14 15 16 17 18 
10 9 1 2 5 6 8 10 11 13 17 
2 12 3 4 5 6 9 10 11 12 13 15 16 17 


20
5
1 16 0 1 2 3 4 5 6 7 8 9 10 11 12 13 14 15
9 5 0 1 16 17 18
2 4 2 3 12 15
3 3 6 9 19
1.5 6 0 1 2 3 4 5




